NAME          
ROWS
 N  OBJ
 L  c3
 L  c4
 L  c5
 L  c6
 L  c7
 G  c1
 G  c2
COLUMNS
    ss[1]     c1        1
    ss[1]     OBJ       1000
    ss[2]     c2        1
    ss[2]     OBJ       1000
    s[1]      c3        1
    s[1]      OBJ       -1000
    s[2]      c4        1
    s[2]      OBJ       -1000
    s[3]      c5        1
    s[3]      OBJ       -1000
    s[4]      c6        1
    s[4]      OBJ       -1000
    s[5]      c7        1
    s[5]      OBJ       -1000
    MARKER    'MARKER'                 'INTORG'
    x[1]      c3        22
    x[1]      c4        807
    x[1]      c5        417
    x[1]      c6        779
    x[1]      c7        846
    x[1]      c1        556
    x[1]      c2        413
    x[1]      OBJ       -1085
    x[2]      c3        941
    x[2]      c4        44
    x[2]      c5        957
    x[2]      c6        424
    x[2]      c7        738
    x[2]      c1        125
    x[2]      c2        794
    x[2]      OBJ       -1086
    x[3]      c3        982
    x[3]      c4        590
    x[3]      c5        629
    x[3]      c6        839
    x[3]      c7        345
    x[3]      c1        736
    x[3]      c2        494
    x[3]      OBJ       -1103
    x[4]      c3        821
    x[4]      c4        202
    x[4]      c5        830
    x[4]      c6        29
    x[4]      c7        51
    x[4]      c1        557
    x[4]      c2        821
    x[4]      OBJ       -304
    x[5]      c3        7
    x[5]      c4        410
    x[5]      c5        195
    x[5]      c6        425
    x[5]      c7        806
    x[5]      c1        301
    x[5]      c2        348
    x[5]      OBJ       -929
    x[6]      c3        16
    x[6]      c4        979
    x[6]      c5        358
    x[6]      c6        301
    x[6]      c7        255
    x[6]      c1        6
    x[6]      c2        961
    x[6]      OBJ       -913
    x[7]      c3        471
    x[7]      c4        268
    x[7]      c5        194
    x[7]      c6        140
    x[7]      c7        88
    x[7]      c1        111
    x[7]      c2        63
    x[7]      OBJ       -1042
    x[8]      c3        932
    x[8]      c4        9
    x[8]      c5        354
    x[8]      c6        571
    x[8]      c7        385
    x[8]      c1        16
    x[8]      c2        962
    x[8]      OBJ       -912
    x[9]      c3        107
    x[9]      c4        250
    x[9]      c5        898
    x[9]      c6        101
    x[9]      c7        574
    x[9]      c1        704
    x[9]      c2        799
    x[9]      OBJ       -568
    x[10]     c3        465
    x[10]     c4        217
    x[10]     c5        96
    x[10]     c6        181
    x[10]     c7        122
    x[10]     c1        952
    x[10]     c2        242
    x[10]     OBJ       -620
    x[11]     c3        692
    x[11]     c4        326
    x[11]     c5        886
    x[11]     c6        362
    x[11]     c7        620
    x[11]     c1        408
    x[11]     c2        352
    x[11]     OBJ       -1221
    x[12]     c3        528
    x[12]     c4        191
    x[12]     c5        269
    x[12]     c6        439
    x[12]     c7        899
    x[12]     c1        492
    x[12]     c2        337
    x[12]     OBJ       -776
    x[13]     c3        391
    x[13]     c4        753
    x[13]     c5        824
    x[13]     c6        142
    x[13]     c7        617
    x[13]     c1        163
    x[13]     c2        111
    x[13]     OBJ       -1424
    x[14]     c3        431
    x[14]     c4        833
    x[14]     c5        501
    x[14]     c6        401
    x[14]     c7        50
    x[14]     c1        938
    x[14]     c2        559
    x[14]     OBJ       -623
    x[15]     c3        442
    x[15]     c4        303
    x[15]     c5        914
    x[15]     c6        467
    x[15]     c7        905
    x[15]     c1        315
    x[15]     c2        889
    x[15]     OBJ       -895
    x[16]     c3        68
    x[16]     c4        370
    x[16]     c5        107
    x[16]     c6        385
    x[16]     c7        190
    x[16]     c1        949
    x[16]     c2        595
    x[16]     OBJ       -372
    x[17]     c3        183
    x[17]     c4        816
    x[17]     c5        689
    x[17]     c6        910
    x[17]     c7        271
    x[17]     c1        670
    x[17]     c2        914
    x[17]     OBJ       -463
    x[18]     c3        642
    x[18]     c4        191
    x[18]     c5        981
    x[18]     c6        23
    x[18]     c7        605
    x[18]     c1        1000
    x[18]     c2        576
    x[18]     OBJ       -314
    x[19]     c3        784
    x[19]     c4        641
    x[19]     c5        231
    x[19]     c6        407
    x[19]     c7        213
    x[19]     c1        457
    x[19]     c2        312
    x[19]     OBJ       -753
    x[20]     c3        554
    x[20]     c4        412
    x[20]     c5        551
    x[20]     c6        139
    x[20]     c7        695
    x[20]     c1        816
    x[20]     c2        323
    x[20]     OBJ       -505
    x[21]     c3        4
    x[21]     c4        240
    x[21]     c5        661
    x[21]     c6        268
    x[21]     c7        133
    x[21]     c1        357
    x[21]     c2        153
    x[21]     OBJ       -749
    x[22]     c3        723
    x[22]     c4        982
    x[22]     c5        220
    x[22]     c6        691
    x[22]     c7        805
    x[22]     c1        495
    x[22]     c2        888
    x[22]     OBJ       -917
    x[23]     c3        334
    x[23]     c4        432
    x[23]     c5        762
    x[23]     c6        933
    x[23]     c7        230
    x[23]     c1        916
    x[23]     c2        287
    x[23]     OBJ       -567
    x[24]     c3        683
    x[24]     c4        22
    x[24]     c5        612
    x[24]     c6        546
    x[24]     c7        322
    x[24]     c1        852
    x[24]     c2        627
    x[24]     OBJ       -705
    x[25]     c3        219
    x[25]     c4        304
    x[25]     c5        107
    x[25]     c6        50
    x[25]     c7        123
    x[25]     c1        614
    x[25]     c2        888
    x[25]     OBJ       -380
    x[26]     c3        708
    x[26]     c4        161
    x[26]     c5        572
    x[26]     c6        965
    x[26]     c7        833
    x[26]     c1        161
    x[26]     c2        634
    x[26]     OBJ       -1335
    x[27]     c3        102
    x[27]     c4        793
    x[27]     c5        928
    x[27]     c6        55
    x[27]     c7        312
    x[27]     c1        60
    x[27]     c2        424
    x[27]     OBJ       -1020
    x[28]     c3        878
    x[28]     c4        169
    x[28]     c5        204
    x[28]     c6        606
    x[28]     c7        410
    x[28]     c1        382
    x[28]     c2        365
    x[28]     OBJ       -814
    x[29]     c3        286
    x[29]     c4        619
    x[29]     c5        976
    x[29]     c6        319
    x[29]     c7        691
    x[29]     c1        373
    x[29]     c2        374
    x[29]     OBJ       -1069
    x[30]     c3        167
    x[30]     c4        888
    x[30]     c5        59
    x[30]     c6        41
    x[30]     c7        435
    x[30]     c1        570
    x[30]     c2        85
    x[30]     OBJ       -765
    x[31]     c3        149
    x[31]     c4        630
    x[31]     c5        786
    x[31]     c6        630
    x[31]     c7        851
    x[31]     c1        182
    x[31]     c2        650
    x[31]     OBJ       -1040
    x[32]     c3        977
    x[32]     c4        268
    x[32]     c5        909
    x[32]     c6        346
    x[32]     c7        79
    x[32]     c1        934
    x[32]     c2        265
    x[32]     OBJ       -618
    x[33]     c3        574
    x[33]     c4        671
    x[33]     c5        794
    x[33]     c6        946
    x[33]     c7        247
    x[33]     c1        129
    x[33]     c2        711
    x[33]     OBJ       -823
    x[34]     c3        624
    x[34]     c4        495
    x[34]     c5        26
    x[34]     c6        41
    x[34]     c7        636
    x[34]     c1        542
    x[34]     c2        204
    x[34]     OBJ       -1070
    x[35]     c3        984
    x[35]     c4        679
    x[35]     c5        694
    x[35]     c6        475
    x[35]     c7        742
    x[35]     c1        767
    x[35]     c2        816
    x[35]     OBJ       -761
    x[36]     c3        99
    x[36]     c4        508
    x[36]     c5        982
    x[36]     c6        194
    x[36]     c7        371
    x[36]     c1        964
    x[36]     c2        595
    x[36]     OBJ       -346
    x[37]     c3        447
    x[37]     c4        998
    x[37]     c5        312
    x[37]     c6        547
    x[37]     c7        383
    x[37]     c1        896
    x[37]     c2        111
    x[37]     OBJ       -874
    x[38]     c3        945
    x[38]     c4        453
    x[38]     c5        163
    x[38]     c6        202
    x[38]     c7        370
    x[38]     c1        350
    x[38]     c2        707
    x[38]     OBJ       -942
    x[39]     c3        814
    x[39]     c4        423
    x[39]     c5        723
    x[39]     c6        536
    x[39]     c7        685
    x[39]     c1        178
    x[39]     c2        774
    x[39]     OBJ       -1070
    x[40]     c3        454
    x[40]     c4        7
    x[40]     c5        157
    x[40]     c6        343
    x[40]     c7        387
    x[40]     c1        557
    x[40]     c2        138
    x[40]     OBJ       -810
    x[41]     c3        617
    x[41]     c4        452
    x[41]     c5        709
    x[41]     c6        697
    x[41]     c7        661
    x[41]     c1        975
    x[41]     c2        687
    x[41]     OBJ       -483
    x[42]     c3        865
    x[42]     c4        441
    x[42]     c5        472
    x[42]     c6        697
    x[42]     c7        260
    x[42]     c1        70
    x[42]     c2        131
    x[42]     OBJ       -1093
    x[43]     c3        482
    x[43]     c4        92
    x[43]     c5        379
    x[43]     c6        794
    x[43]     c7        388
    x[43]     c1        226
    x[43]     c2        279
    x[43]     OBJ       -1093
    x[44]     c3        333
    x[44]     c4        703
    x[44]     c5        894
    x[44]     c6        676
    x[44]     c7        573
    x[44]     c1        356
    x[44]     c2        775
    x[44]     OBJ       -762
    x[45]     c3        887
    x[45]     c4        677
    x[45]     c5        576
    x[45]     c6        603
    x[45]     c7        209
    x[45]     c1        404
    x[45]     c2        191
    x[45]     OBJ       -1339
    x[46]     c3        244
    x[46]     c4        476
    x[46]     c5        595
    x[46]     c6        44
    x[46]     c7        227
    x[46]     c1        79
    x[46]     c2        217
    x[46]     OBJ       -781
    x[47]     c3        669
    x[47]     c4        484
    x[47]     c5        94
    x[47]     c6        88
    x[47]     c7        313
    x[47]     c1        833
    x[47]     c2        181
    x[47]     OBJ       -643
    x[48]     c3        105
    x[48]     c4        535
    x[48]     c5        587
    x[48]     c6        669
    x[48]     c7        406
    x[48]     c1        616
    x[48]     c2        750
    x[48]     OBJ       -590
    x[49]     c3        26
    x[49]     c4        235
    x[49]     c5        469
    x[49]     c6        311
    x[49]     c7        155
    x[49]     c1        575
    x[49]     c2        890
    x[49]     OBJ       -305
    x[50]     c3        592
    x[50]     c4        671
    x[50]     c5        697
    x[50]     c6        992
    x[50]     c7        713
    x[50]     c1        987
    x[50]     c2        776
    x[50]     OBJ       -783
    x[51]     c3        277
    x[51]     c4        432
    x[51]     c5        154
    x[51]     c6        8
    x[51]     c7        522
    x[51]     c1        340
    x[51]     c2        484
    x[51]     OBJ       -604
    x[52]     c3        76
    x[52]     c4        119
    x[52]     c5        742
    x[52]     c6        165
    x[52]     c7        657
    x[52]     c1        794
    x[52]     c2        655
    x[52]     OBJ       -334
    x[53]     c3        372
    x[53]     c4        738
    x[53]     c5        193
    x[53]     c6        716
    x[53]     c7        972
    x[53]     c1        321
    x[53]     c2        662
    x[53]     OBJ       -818
    x[54]     c3        565
    x[54]     c4        659
    x[54]     c5        773
    x[54]     c6        590
    x[54]     c7        7
    x[54]     c1        337
    x[54]     c2        662
    x[54]     OBJ       -1110
    x[55]     c3        408
    x[55]     c4        673
    x[55]     c5        796
    x[55]     c6        590
    x[55]     c7        172
    x[55]     c1        580
    x[55]     c2        995
    x[55]     OBJ       -376
    x[56]     c3        345
    x[56]     c4        7
    x[56]     c5        639
    x[56]     c6        636
    x[56]     c7        358
    x[56]     c1        920
    x[56]     c2        248
    x[56]     OBJ       -698
    x[57]     c3        524
    x[57]     c4        589
    x[57]     c5        615
    x[57]     c6        288
    x[57]     c7        299
    x[57]     c1        425
    x[57]     c2        718
    x[57]     OBJ       -812
    x[58]     c3        786
    x[58]     c4        26
    x[58]     c5        270
    x[58]     c6        260
    x[58]     c7        496
    x[58]     c1        170
    x[58]     c2        321
    x[58]     OBJ       -1176
    x[59]     c3        406
    x[59]     c4        613
    x[59]     c5        845
    x[59]     c6        28
    x[59]     c7        271
    x[59]     c1        955
    x[59]     c2        533
    x[59]     OBJ       -549
    x[60]     c3        441
    x[60]     c4        437
    x[60]     c5        726
    x[60]     c6        322
    x[60]     c7        344
    x[60]     c1        581
    x[60]     c2        391
    x[60]     OBJ       -749
    x[61]     c3        20
    x[61]     c4        141
    x[61]     c5        390
    x[61]     c6        929
    x[61]     c7        936
    x[61]     c1        739
    x[61]     c2        81
    x[61]     OBJ       -839
    x[62]     c3        704
    x[62]     c4        945
    x[62]     c5        200
    x[62]     c6        437
    x[62]     c7        638
    x[62]     c1        622
    x[62]     c2        253
    x[62]     OBJ       -1092
    x[63]     c3        217
    x[63]     c4        752
    x[63]     c5        862
    x[63]     c6        599
    x[63]     c7        290
    x[63]     c1        473
    x[63]     c2        879
    x[63]     OBJ       -500
    x[64]     c3        167
    x[64]     c4        655
    x[64]     c5        328
    x[64]     c6        79
    x[64]     c7        709
    x[64]     c1        789
    x[64]     c2        540
    x[64]     OBJ       -359
    x[65]     c3        748
    x[65]     c4        108
    x[65]     c5        927
    x[65]     c6        892
    x[65]     c7        426
    x[65]     c1        946
    x[65]     c2        959
    x[65]     OBJ       -573
    x[66]     c3        151
    x[66]     c4        634
    x[66]     c5        411
    x[66]     c6        120
    x[66]     c7        600
    x[66]     c1        499
    x[66]     c2        118
    x[66]     OBJ       -1043
    x[67]     c3        518
    x[67]     c4        578
    x[67]     c5        857
    x[67]     c6        255
    x[67]     c7        978
    x[67]     c1        666
    x[67]     c2        989
    x[67]     OBJ       -708
    x[68]     c3        606
    x[68]     c4        95
    x[68]     c5        866
    x[68]     c6        158
    x[68]     c7        532
    x[68]     c1        546
    x[68]     c2        781
    x[68]     OBJ       -704
    x[69]     c3        596
    x[69]     c4        501
    x[69]     c5        232
    x[69]     c6        319
    x[69]     c7        530
    x[69]     c1        630
    x[69]     c2        678
    x[69]     OBJ       -756
    x[70]     c3        170
    x[70]     c4        99
    x[70]     c5        638
    x[70]     c6        297
    x[70]     c7        376
    x[70]     c1        997
    x[70]     c2        787
    x[70]     OBJ       -295
    x[71]     c3        369
    x[71]     c4        229
    x[71]     c5        93
    x[71]     c6        373
    x[71]     c7        754
    x[71]     c1        462
    x[71]     c2        424
    x[71]     OBJ       -611
    x[72]     c3        184
    x[72]     c4        289
    x[72]     c5        814
    x[72]     c6        540
    x[72]     c7        800
    x[72]     c1        750
    x[72]     c2        721
    x[72]     OBJ       -750
    x[73]     c3        491
    x[73]     c4        994
    x[73]     c5        402
    x[73]     c6        399
    x[73]     c7        148
    x[73]     c1        841
    x[73]     c2        623
    x[73]     OBJ       -662
    x[74]     c3        364
    x[74]     c4        1000
    x[74]     c5        10
    x[74]     c6        946
    x[74]     c7        350
    x[74]     c1        795
    x[74]     c2        833
    x[74]     OBJ       -561
    x[75]     c3        874
    x[75]     c4        179
    x[75]     c5        79
    x[75]     c6        282
    x[75]     c7        249
    x[75]     c1        2
    x[75]     c2        986
    x[75]     OBJ       -798
    x[76]     c3        317
    x[76]     c4        390
    x[76]     c5        336
    x[76]     c6        813
    x[76]     c7        838
    x[76]     c1        522
    x[76]     c2        141
    x[76]     OBJ       -835
    x[77]     c3        235
    x[77]     c4        770
    x[77]     c5        481
    x[77]     c6        576
    x[77]     c7        344
    x[77]     c1        778
    x[77]     c2        66
    x[77]     OBJ       -864
    x[78]     c3        975
    x[78]     c4        785
    x[78]     c5        414
    x[78]     c6        455
    x[78]     c7        927
    x[78]     c1        42
    x[78]     c2        983
    x[78]     OBJ       -829
    x[79]     c3        481
    x[79]     c4        577
    x[79]     c5        232
    x[79]     c6        595
    x[79]     c7        622
    x[79]     c1        714
    x[79]     c2        449
    x[79]     OBJ       -883
    x[80]     c3        901
    x[80]     c4        94
    x[80]     c5        951
    x[80]     c6        193
    x[80]     c7        840
    x[80]     c1        645
    x[80]     c2        654
    x[80]     OBJ       -622
    x[81]     c3        225
    x[81]     c4        529
    x[81]     c5        233
    x[81]     c6        320
    x[81]     c7        908
    x[81]     c1        855
    x[81]     c2        458
    x[81]     OBJ       -542
    x[82]     c3        320
    x[82]     c4        92
    x[82]     c5        605
    x[82]     c6        916
    x[82]     c7        67
    x[82]     c1        396
    x[82]     c2        675
    x[82]     OBJ       -726
    x[83]     c3        786
    x[83]     c4        797
    x[83]     c5        227
    x[83]     c6        574
    x[83]     c7        660
    x[83]     c1        768
    x[83]     c2        515
    x[83]     OBJ       -933
    x[84]     c3        678
    x[84]     c4        727
    x[84]     c5        932
    x[84]     c6        632
    x[84]     c7        895
    x[84]     c1        392
    x[84]     c2        718
    x[84]     OBJ       -893
    x[85]     c3        613
    x[85]     c4        53
    x[85]     c5        139
    x[85]     c6        963
    x[85]     c7        576
    x[85]     c1        141
    x[85]     c2        486
    x[85]     OBJ       -755
    x[86]     c3        252
    x[86]     c4        24
    x[86]     c5        937
    x[86]     c6        351
    x[86]     c7        953
    x[86]     c1        544
    x[86]     c2        881
    x[86]     OBJ       -784
    x[87]     c3        529
    x[87]     c4        193
    x[87]     c5        875
    x[87]     c6        636
    x[87]     c7        365
    x[87]     c1        847
    x[87]     c2        726
    x[87]     OBJ       -394
    x[88]     c3        652
    x[88]     c4        168
    x[88]     c5        132
    x[88]     c6        827
    x[88]     c7        347
    x[88]     c1        263
    x[88]     c2        386
    x[88]     OBJ       -1152
    x[89]     c3        70
    x[89]     c4        73
    x[89]     c5        210
    x[89]     c6        228
    x[89]     c7        919
    x[89]     c1        325
    x[89]     c2        796
    x[89]     OBJ       -503
    x[90]     c3        816
    x[90]     c4        310
    x[90]     c5        286
    x[90]     c6        669
    x[90]     c7        555
    x[90]     c1        227
    x[90]     c2        229
    x[90]     OBJ       -1260
    x[91]     c3        284
    x[91]     c4        109
    x[91]     c5        415
    x[91]     c6        836
    x[91]     c7        608
    x[91]     c1        765
    x[91]     c2        398
    x[91]     OBJ       -757
    x[92]     c3        468
    x[92]     c4        924
    x[92]     c5        54
    x[92]     c6        294
    x[92]     c7        546
    x[92]     c1        128
    x[92]     c2        335
    x[92]     OBJ       -1241
    x[93]     c3        482
    x[93]     c4        628
    x[93]     c5        649
    x[93]     c6        768
    x[93]     c7        672
    x[93]     c1        10
    x[93]     c2        624
    x[93]     OBJ       -983
    x[94]     c3        691
    x[94]     c4        80
    x[94]     c5        742
    x[94]     c6        917
    x[94]     c7        241
    x[94]     c1        973
    x[94]     c2        283
    x[94]     OBJ       -537
    x[95]     c3        683
    x[95]     c4        190
    x[95]     c5        677
    x[95]     c6        851
    x[95]     c7        122
    x[95]     c1        162
    x[95]     c2        182
    x[95]     OBJ       -1122
    x[96]     c3        591
    x[96]     c4        663
    x[96]     c5        571
    x[96]     c6        351
    x[96]     c7        481
    x[96]     c1        743
    x[96]     c2        589
    x[96]     OBJ       -684
    x[97]     c3        128
    x[97]     c4        279
    x[97]     c5        969
    x[97]     c6        642
    x[97]     c7        840
    x[97]     c1        208
    x[97]     c2        153
    x[97]     OBJ       -1222
    x[98]     c3        53
    x[98]     c4        454
    x[98]     c5        640
    x[98]     c6        942
    x[98]     c7        806
    x[98]     c1        223
    x[98]     c2        945
    x[98]     OBJ       -663
    x[99]     c3        664
    x[99]     c4        904
    x[99]     c5        375
    x[99]     c6        645
    x[99]     c7        526
    x[99]     c1        981
    x[99]     c2        272
    x[99]     OBJ       -820
    x[100]    c3        431
    x[100]    c4        106
    x[100]    c5        976
    x[100]    c6        455
    x[100]    c7        710
    x[100]    c1        143
    x[100]    c2        849
    x[100]    OBJ       -1049
RHS
    rhs       c3        23587
    rhs       c4        22266
    rhs       c5        26460
    rhs       c6        23724
    rhs       c7        25004
    rhs       c1        26324
    rhs       c2        26776
RANGES
BOUNDS
 LO bounds    ss[1]     0
 PL bounds    ss[1]
 LO bounds    ss[2]     0
 PL bounds    ss[2]
 MI bounds    s[1]
 UP bounds    s[1]      0
 MI bounds    s[2]
 UP bounds    s[2]      0
 MI bounds    s[3]
 UP bounds    s[3]      0
 MI bounds    s[4]
 UP bounds    s[4]      0
 MI bounds    s[5]
 UP bounds    s[5]      0
 BV bounds    x[1]
 BV bounds    x[2]
 BV bounds    x[3]
 BV bounds    x[4]
 BV bounds    x[5]
 BV bounds    x[6]
 BV bounds    x[7]
 BV bounds    x[8]
 BV bounds    x[9]
 BV bounds    x[10]
 BV bounds    x[11]
 BV bounds    x[12]
 BV bounds    x[13]
 BV bounds    x[14]
 BV bounds    x[15]
 BV bounds    x[16]
 BV bounds    x[17]
 BV bounds    x[18]
 BV bounds    x[19]
 BV bounds    x[20]
 BV bounds    x[21]
 BV bounds    x[22]
 BV bounds    x[23]
 BV bounds    x[24]
 BV bounds    x[25]
 BV bounds    x[26]
 BV bounds    x[27]
 BV bounds    x[28]
 BV bounds    x[29]
 BV bounds    x[30]
 BV bounds    x[31]
 BV bounds    x[32]
 BV bounds    x[33]
 BV bounds    x[34]
 BV bounds    x[35]
 BV bounds    x[36]
 BV bounds    x[37]
 BV bounds    x[38]
 BV bounds    x[39]
 BV bounds    x[40]
 BV bounds    x[41]
 BV bounds    x[42]
 BV bounds    x[43]
 BV bounds    x[44]
 BV bounds    x[45]
 BV bounds    x[46]
 BV bounds    x[47]
 BV bounds    x[48]
 BV bounds    x[49]
 BV bounds    x[50]
 BV bounds    x[51]
 BV bounds    x[52]
 BV bounds    x[53]
 BV bounds    x[54]
 BV bounds    x[55]
 BV bounds    x[56]
 BV bounds    x[57]
 BV bounds    x[58]
 BV bounds    x[59]
 BV bounds    x[60]
 BV bounds    x[61]
 BV bounds    x[62]
 BV bounds    x[63]
 BV bounds    x[64]
 BV bounds    x[65]
 BV bounds    x[66]
 BV bounds    x[67]
 BV bounds    x[68]
 BV bounds    x[69]
 BV bounds    x[70]
 BV bounds    x[71]
 BV bounds    x[72]
 BV bounds    x[73]
 BV bounds    x[74]
 BV bounds    x[75]
 BV bounds    x[76]
 BV bounds    x[77]
 BV bounds    x[78]
 BV bounds    x[79]
 BV bounds    x[80]
 BV bounds    x[81]
 BV bounds    x[82]
 BV bounds    x[83]
 BV bounds    x[84]
 BV bounds    x[85]
 BV bounds    x[86]
 BV bounds    x[87]
 BV bounds    x[88]
 BV bounds    x[89]
 BV bounds    x[90]
 BV bounds    x[91]
 BV bounds    x[92]
 BV bounds    x[93]
 BV bounds    x[94]
 BV bounds    x[95]
 BV bounds    x[96]
 BV bounds    x[97]
 BV bounds    x[98]
 BV bounds    x[99]
 BV bounds    x[100]
ENDATA
